c 
c G(n,p) graph
c graph gen seed     : 565657
c number of vertices : 80
c max number of edges: 3160
c edge probability   : 0.200000
c data structure     : sparse
c
c           Graph Stats
c number of vertices  : 80
c nonisolated vertices: 80
c number of edges     : 613
c edge density        : 0.193987
c max degree          : 23
c avg degree          : 15.32
c min degree          : 5
p col 80 613
e 1 80
e 1 77
e 1 75
e 1 74
e 1 70
e 1 69
e 1 66
e 1 64
e 1 59
e 1 51
e 1 48
e 1 45
e 1 25
e 1 17
e 1 6
e 1 4
e 1 2
e 2 68
e 2 67
e 2 62
e 2 58
e 2 56
e 2 47
e 2 44
e 2 42
e 2 40
e 2 33
e 2 32
e 2 31
e 2 28
e 2 8
e 3 80
e 3 78
e 3 74
e 3 73
e 3 68
e 3 59
e 3 58
e 3 52
e 3 51
e 3 45
e 3 33
e 3 28
e 3 26
e 3 24
e 3 17
e 3 15
e 3 9
e 3 8
e 3 7
e 4 77
e 4 72
e 4 68
e 4 61
e 4 54
e 4 53
e 4 52
e 4 48
e 4 47
e 4 43
e 4 41
e 4 38
e 4 29
e 4 21
e 4 20
e 4 14
e 4 11
e 5 78
e 5 75
e 5 74
e 5 72
e 5 69
e 5 68
e 5 61
e 5 60
e 5 55
e 5 53
e 5 46
e 5 40
e 5 36
e 5 23
e 5 13
e 6 80
e 6 77
e 6 73
e 6 69
e 6 66
e 6 62
e 6 56
e 6 51
e 6 42
e 6 40
e 6 35
e 6 33
e 6 28
e 6 21
e 6 17
e 6 13
e 6 12
e 7 78
e 7 76
e 7 70
e 7 66
e 7 58
e 7 43
e 7 33
e 7 27
e 7 22
e 7 21
e 7 16
e 7 13
e 7 12
e 7 11
e 7 10
e 8 78
e 8 68
e 8 51
e 8 44
e 8 40
e 8 35
e 8 31
e 8 30
e 8 22
e 8 20
e 8 15
e 8 13
e 8 12
e 9 77
e 9 75
e 9 72
e 9 68
e 9 44
e 9 38
e 9 23
e 9 15
e 9 14
e 9 12
e 10 73
e 10 71
e 10 49
e 10 41
e 10 37
e 10 29
e 10 21
e 10 19
e 10 18
e 10 11
e 11 65
e 11 59
e 11 56
e 11 52
e 11 45
e 11 44
e 11 41
e 11 40
e 11 39
e 11 36
e 11 35
e 11 28
e 11 27
e 11 22
e 11 21
e 11 19
e 12 80
e 12 77
e 12 73
e 12 68
e 12 65
e 12 62
e 12 54
e 12 32
e 12 29
e 12 23
e 12 21
e 13 80
e 13 79
e 13 69
e 13 64
e 13 60
e 13 59
e 13 48
e 13 46
e 13 39
e 13 37
e 13 29
e 13 27
e 13 24
e 13 17
e 14 75
e 14 73
e 14 71
e 14 65
e 14 62
e 14 57
e 14 54
e 14 46
e 14 40
e 14 39
e 14 34
e 14 21
e 14 18
e 15 75
e 15 64
e 15 61
e 15 59
e 15 58
e 15 46
e 15 44
e 15 28
e 15 27
e 15 26
e 15 24
e 15 18
e 15 17
e 15 16
e 16 79
e 16 77
e 16 67
e 16 66
e 16 64
e 16 63
e 16 56
e 16 41
e 16 37
e 16 35
e 16 28
e 16 21
e 16 19
e 17 80
e 17 74
e 17 71
e 17 66
e 17 65
e 17 64
e 17 60
e 17 58
e 17 57
e 17 54
e 17 53
e 17 38
e 17 31
e 17 30
e 17 23
e 17 20
e 18 76
e 18 71
e 18 70
e 18 59
e 18 54
e 18 52
e 18 51
e 18 47
e 18 42
e 18 40
e 18 32
e 18 27
e 18 24
e 18 22
e 19 77
e 19 72
e 19 59
e 19 58
e 19 52
e 19 50
e 19 49
e 19 42
e 19 23
e 19 22
e 19 21
e 20 76
e 20 75
e 20 73
e 20 70
e 20 59
e 20 56
e 20 43
e 20 41
e 20 40
e 20 35
e 20 32
e 20 30
e 20 25
e 20 21
e 21 77
e 21 55
e 21 54
e 21 50
e 21 48
e 21 39
e 21 34
e 21 29
e 21 28
e 21 27
e 21 24
e 22 79
e 22 78
e 22 76
e 22 73
e 22 68
e 22 66
e 22 65
e 22 64
e 22 63
e 22 55
e 22 45
e 22 44
e 22 37
e 22 32
e 22 30
e 22 29
e 23 77
e 23 72
e 23 68
e 23 67
e 23 60
e 23 45
e 23 44
e 23 36
e 23 35
e 23 30
e 24 69
e 24 60
e 24 52
e 24 45
e 24 39
e 24 33
e 24 28
e 25 74
e 25 62
e 25 60
e 25 59
e 25 53
e 25 48
e 25 46
e 25 41
e 25 35
e 25 33
e 25 31
e 25 30
e 25 27
e 26 74
e 26 69
e 26 59
e 26 55
e 26 52
e 26 51
e 26 48
e 26 46
e 26 45
e 26 43
e 26 40
e 26 35
e 26 34
e 26 32
e 26 29
e 26 27
e 27 80
e 27 76
e 27 71
e 27 66
e 27 64
e 27 55
e 27 46
e 27 45
e 27 30
e 28 74
e 28 73
e 28 69
e 28 58
e 28 55
e 28 50
e 28 49
e 28 47
e 28 45
e 28 43
e 28 34
e 28 30
e 29 71
e 29 60
e 29 51
e 29 50
e 29 46
e 29 33
e 30 76
e 30 65
e 30 60
e 30 48
e 30 47
e 30 43
e 30 42
e 30 34
e 31 77
e 31 76
e 31 75
e 31 66
e 31 56
e 31 52
e 32 80
e 32 75
e 32 74
e 32 72
e 32 71
e 32 61
e 32 55
e 32 52
e 32 51
e 32 46
e 32 45
e 32 42
e 32 36
e 33 69
e 33 66
e 33 64
e 33 55
e 33 50
e 33 43
e 33 40
e 33 39
e 33 34
e 34 79
e 34 75
e 34 48
e 34 45
e 34 43
e 34 42
e 34 37
e 34 35
e 35 80
e 35 79
e 35 73
e 35 69
e 35 66
e 35 63
e 35 57
e 35 55
e 35 53
e 35 52
e 35 48
e 35 44
e 36 71
e 36 69
e 36 68
e 36 65
e 36 61
e 36 54
e 36 48
e 36 46
e 36 43
e 37 53
e 37 45
e 38 78
e 38 75
e 38 73
e 38 67
e 38 66
e 38 47
e 38 46
e 38 44
e 38 39
e 39 80
e 39 77
e 39 76
e 39 59
e 39 54
e 39 53
e 39 50
e 40 80
e 40 79
e 40 76
e 40 73
e 40 59
e 40 50
e 40 49
e 40 46
e 40 45
e 40 43
e 40 41
e 41 79
e 41 75
e 41 74
e 41 73
e 41 48
e 41 47
e 41 43
e 42 78
e 42 69
e 42 59
e 42 50
e 42 47
e 43 74
e 43 73
e 43 72
e 43 66
e 43 64
e 43 56
e 44 78
e 44 73
e 44 49
e 45 80
e 45 78
e 45 72
e 45 69
e 45 62
e 45 55
e 45 54
e 45 51
e 45 47
e 46 80
e 46 79
e 46 78
e 46 74
e 46 70
e 46 66
e 46 63
e 46 56
e 46 48
e 47 77
e 47 73
e 47 68
e 47 60
e 47 49
e 48 80
e 48 79
e 48 69
e 48 57
e 49 79
e 49 74
e 49 73
e 49 68
e 49 67
e 49 62
e 49 61
e 49 58
e 49 55
e 49 53
e 49 51
e 49 50
e 50 71
e 50 62
e 50 60
e 51 79
e 51 76
e 51 70
e 51 60
e 51 54
e 52 75
e 52 67
e 52 60
e 52 56
e 53 74
e 53 73
e 53 72
e 53 71
e 53 66
e 53 61
e 53 56
e 54 72
e 54 64
e 55 76
e 55 73
e 55 60
e 56 75
e 56 73
e 56 69
e 56 67
e 56 66
e 57 78
e 57 73
e 58 75
e 58 71
e 59 79
e 59 71
e 59 70
e 59 66
e 59 64
e 59 61
e 60 80
e 60 79
e 60 78
e 60 75
e 60 73
e 60 72
e 60 69
e 60 65
e 61 79
e 61 73
e 61 67
e 61 64
e 62 79
e 62 78
e 62 69
e 62 66
e 63 74
e 64 72
e 64 66
e 65 74
e 65 72
e 65 69
e 65 67
e 66 78
e 66 71
e 66 68
e 67 71
e 68 79
e 68 78
e 68 76
e 68 75
e 69 79
e 70 79
e 71 80
e 72 80
e 73 78
e 75 76
